DIMENSION :12
NODE_COORD_SECTION
1 27.14591826272195 17.53378768001241
2 -82.51081180995922 60.38281223249001
3 30.24345991472873 69.26726544250943
4 -67.29913794398301 41.27445934164999
5 -16.218497024944327 -32.86680903198838
6 -34.91704446273762 -34.8392377292833
7 96.23702479970802 87.92528912546584
8 80.09332100721778 11.07736325606237
9 73.17969337023047 78.78114138562003
10 37.23278428677483 94.72320040024468
11 -0.6757563960833437 14.337968940430429
12 97.83122847138173 -94.17538110308004
EOF
